NAME: sphere_rand_nol_10x1
COMMENT: type = sphere, neigh_ang = 0.174532925199, neigh_size = 10
COMMENT: sphere_limit = 1.0471975512, rect_limit = [-1.0471975512, 0.785398163397, -0.785398163397, 1.74532925199]
TYPE: GTSP
DIMENSION: 10
GTSP_SETS: 10
EDGE_WEIGHT_TYPE: GEOM
NODE_COORD_SECTION:
1 -94.3327342469 5.07492908062
2 -46.8161400427 11.9958052071
3 45.2593094789 -60.335957478
4 -175.25952304 42.4493484833
5 -86.6325548419 -32.095908016
6 178.432140784 -3.40956300876
7 121.126122459 -2.71073383093
8 48.5498369827 47.3994520945
9 8.34523573799 28.8490514915
10 92.9628886633 10.4978812756
GTSP_SET_SECTION:
1 1 -1
2 2 -1
3 3 -1
4 4 -1
5 5 -1
6 6 -1
7 7 -1
8 8 -1
9 9 -1
10 10 -1
EOF